\ENCODING=ISO-8859-1
\Problem name: IloCplex

Minimize
 obj1: 135 x1 + 140 x2 + 138 x3 - 128 x4 + 77 x5 - 75 x6 + 80 x7 + 150 x8
       + 145 x9 + 135 x10 + 140 x11 + 139 x12 - 129 x13 + 77 x14 - 75 x15
       + 80 x16 + 150 x17 + 145 x18 + 135 x19 + 140 x20 + 143 x21 - 133 x22
       + 77 x23 - 75 x24 + 80 x25 + 150 x26 + 145 x27 + 135 x28 + 140 x29
       + 149 x30 - 139 x31 + 77 x32 - 75 x33 + 80 x34 + 150 x35 + 145 x36
       + 135 x37 + 140 x38 + 150 x39 - 140 x40 + 77 x41 - 75 x42 + 80 x43
       + 150 x44 + 145 x45 + 135 x46 + 140 x47 + 152 x48 - 142 x49 + 77 x50
       - 75 x51 + 80 x52 + 150 x53 + 145 x54 + 135 x55 + 140 x56 + 155 x57
       - 145 x58 + 77 x59 - 75 x60 + 80 x61 + 150 x62 + 145 x63 + 135 x64
       + 140 x65 + 158 x66 - 148 x67 + 77 x68 - 75 x69 + 80 x70 + 150 x71
       + 145 x72 + 135 x73 + 140 x74 + 160 x75 - 150 x76 + 83 x77 - 80 x78
       + 80 x79 + 150 x80 + 145 x81 + 135 x82 + 140 x83 + 154 x84 - 144 x85
       + 83 x86 - 80 x87 + 80 x88 + 150 x89 + 145 x90 + 135 x91 + 140 x92
       + 153 x93 - 143 x94 + 83 x95 - 80 x96 + 80 x97 + 150 x98 + 145 x99
       + 135 x100 + 140 x101 + 153 x102 - 143 x103 + 83 x104 - 80 x105
       + 80 x106 + 150 x107 + 145 x108 + 135 x109 + 140 x110 + 152 x111
       - 142 x112 + 83 x113 - 80 x114 + 80 x115 + 150 x116 + 145 x117
       + 135 x118 + 140 x119 + 150 x120 - 140 x121 + 83 x122 - 80 x123
       + 80 x124 + 150 x125 + 145 x126 + 135 x127 + 140 x128 + 149 x129
       - 139 x130 + 83 x131 - 80 x132 + 80 x133 + 150 x134 + 145 x135
       + 135 x136 + 140 x137 + 149 x138 - 139 x139 + 83 x140 - 80 x141
       + 80 x142 + 150 x143 + 145 x144 + 135 x145 + 140 x146 + 154 x147
       - 144 x148 + 83 x149 - 80 x150 + 80 x151 + 150 x152 + 145 x153
       + 135 x154 + 140 x155 + 156 x156 - 146 x157 + 83 x158 - 80 x159
       + 80 x160 + 150 x161 + 145 x162 + 135 x163 + 140 x164 + 163 x165
       - 153 x166 + 78 x167 - 78 x168 + 80 x169 + 150 x170 + 145 x171
       + 135 x172 + 140 x173 + 164 x174 - 154 x175 + 78 x176 - 78 x177
       + 80 x178 + 150 x179 + 145 x180 + 135 x181 + 140 x182 + 164 x183
       - 154 x184 + 78 x185 - 78 x186 + 80 x187 + 150 x188 + 145 x189
       + 135 x190 + 140 x191 + 160 x192 - 150 x193 + 78 x194 - 78 x195
       + 80 x196 + 150 x197 + 145 x198 + 135 x199 + 140 x200 + 150 x201
       - 140 x202 + 78 x203 - 78 x204 + 80 x205 + 150 x206 + 145 x207
       + 135 x208 + 140 x209 + 148 x210 - 138 x211 + 78 x212 - 78 x213
       + 80 x214 + 150 x215 + 145 x216 + 24
Subject To
 c1:   x1 >= 0
 c2:   x1 <= 100
 c3:   x2 >= 0
 c4:   x2 <= 80
 c5:   x7 >= 0
 c6:   x7 <= 80
 c7:   x8 >= 30
 c8:   x8 <= 60
 c9:   x9 >= 50
 c10:  x9 <= 100
 c11:  - 1.20000004768372 x8 + x217  = 0
 c12:  - 0.800000011920929 x9 + x218  = 0
 c13:  x219 >= 0
 c14:  x219 <= 1
 c15:  x220 >= 0
 c16:  x220 <= 1
 c17:  x219 - 0.00949999988079071 x221 + 0.0105263159215615 x222
        = 0.200000002980232
 c18:  x221 >= 0
 c19:  x222 >= 0
 c20:  x221 <= 84.2105255126953
 c21:  x222 <= 19
 c22:  x220 - 0.0189999997615814 x223 + 0.0210526318431231 x224  = 0.5
 c23:  x223 >= 0
 c24:  x224 >= 0
 c25:  x223 <= 26.3157898039039
 c26:  x224 <= 23.7499997019768
 c27:  x1 + x2 + x3 - x4 + x8 + x9 - x221 + x222  = 169
 c28:  x5 - x6 + x7 + x217 + x218 - x223 + x224  = 130
 c29:  x10 >= 0
 c30:  x10 <= 100
 c31:  x11 >= 0
 c32:  x11 <= 80
 c33:  x16 >= 0
 c34:  x16 <= 80
 c35:  x17 >= 30
 c36:  x17 <= 60
 c37:  x18 >= 50
 c38:  x18 <= 100
 c39:  - 1.20000004768372 x17 + x225  = 0
 c40:  - 0.800000011920929 x18 + x226  = 0
 c41:  x227 >= 0
 c42:  x227 <= 1
 c43:  x228 >= 0
 c44:  x228 <= 1
 c45:  - x219 + x227 - 0.00949999988079071 x229 + 0.0105263159215615 x230  = 0
 c46:  x229 >= 0
 c47:  x230 >= 0
 c48:  105.263159215615 x219 + x229 <= 105.263159215615
 c49:  - 94.9999988079071 x219 + x230 <= 0
 c50:  - x220 + x228 - 0.0189999997615814 x231 + 0.0210526318431231 x232  = 0
 c51:  x231 >= 0
 c52:  x232 >= 0
 c53:  52.6315796078077 x220 + x231 <= 52.6315796078077
 c54:  - 47.4999994039536 x220 + x232 <= 0
 c55:  x10 + x11 + x12 - x13 + x17 + x18 - x229 + x230  = 175
 c56:  x14 - x15 + x16 + x225 + x226 - x231 + x232  = 125
 c57:  x19 >= 0
 c58:  x19 <= 100
 c59:  x20 >= 0
 c60:  x20 <= 80
 c61:  x25 >= 0
 c62:  x25 <= 80
 c63:  x26 >= 30
 c64:  x26 <= 60
 c65:  x27 >= 50
 c66:  x27 <= 100
 c67:  - 1.20000004768372 x26 + x233  = 0
 c68:  - 0.800000011920929 x27 + x234  = 0
 c69:  x235 >= 0
 c70:  x235 <= 1
 c71:  x236 >= 0
 c72:  x236 <= 1
 c73:  - x227 + x235 - 0.00949999988079071 x237 + 0.0105263159215615 x238  = 0
 c74:  x237 >= 0
 c75:  x238 >= 0
 c76:  105.263159215615 x227 + x237 <= 105.263159215615
 c77:  - 94.9999988079071 x227 + x238 <= 0
 c78:  - x228 + x236 - 0.0189999997615814 x239 + 0.0210526318431231 x240  = 0
 c79:  x239 >= 0
 c80:  x240 >= 0
 c81:  52.6315796078077 x228 + x239 <= 52.6315796078077
 c82:  - 47.4999994039536 x228 + x240 <= 0
 c83:  x19 + x20 + x21 - x22 + x26 + x27 - x237 + x238  = 179
 c84:  x23 - x24 + x25 + x233 + x234 - x239 + x240  = 120
 c85:  x28 >= 0
 c86:  x28 <= 100
 c87:  x29 >= 0
 c88:  x29 <= 80
 c89:  x34 >= 0
 c90:  x34 <= 80
 c91:  x35 >= 30
 c92:  x35 <= 60
 c93:  x36 >= 50
 c94:  x36 <= 100
 c95:  - 1.20000004768372 x35 + x241  = 0
 c96:  - 0.800000011920929 x36 + x242  = 0
 c97:  x243 >= 0
 c98:  x243 <= 1
 c99:  x244 >= 0
 c100: x244 <= 1
 c101: - x235 + x243 - 0.00949999988079071 x245 + 0.0105263159215615 x246  = 0
 c102: x245 >= 0
 c103: x246 >= 0
 c104: 105.263159215615 x235 + x245 <= 105.263159215615
 c105: - 94.9999988079071 x235 + x246 <= 0
 c106: - x236 + x244 - 0.0189999997615814 x247 + 0.0210526318431231 x248  = 0
 c107: x247 >= 0
 c108: x248 >= 0
 c109: 52.6315796078077 x236 + x247 <= 52.6315796078077
 c110: - 47.4999994039536 x236 + x248 <= 0
 c111: x28 + x29 + x30 - x31 + x35 + x36 - x245 + x246  = 171
 c112: x32 - x33 + x34 + x241 + x242 - x247 + x248  = 120
 c113: x37 >= 0
 c114: x37 <= 100
 c115: x38 >= 0
 c116: x38 <= 80
 c117: x43 >= 0
 c118: x43 <= 80
 c119: x44 >= 30
 c120: x44 <= 60
 c121: x45 >= 50
 c122: x45 <= 100
 c123: - 1.20000004768372 x44 + x249  = 0
 c124: - 0.800000011920929 x45 + x250  = 0
 c125: x251 >= 0
 c126: x251 <= 1
 c127: x252 >= 0
 c128: x252 <= 1
 c129: - x243 + x251 - 0.00949999988079071 x253 + 0.0105263159215615 x254  = 0
 c130: x253 >= 0
 c131: x254 >= 0
 c132: 105.263159215615 x243 + x253 <= 105.263159215615
 c133: - 94.9999988079071 x243 + x254 <= 0
 c134: - x244 + x252 - 0.0189999997615814 x255 + 0.0210526318431231 x256  = 0
 c135: x255 >= 0
 c136: x256 >= 0
 c137: 52.6315796078077 x244 + x255 <= 52.6315796078077
 c138: - 47.4999994039536 x244 + x256 <= 0
 c139: x37 + x38 + x39 - x40 + x44 + x45 - x253 + x254  = 181
 c140: x41 - x42 + x43 + x249 + x250 - x255 + x256  = 125
 c141: x46 >= 0
 c142: x46 <= 100
 c143: x47 >= 0
 c144: x47 <= 80
 c145: x52 >= 0
 c146: x52 <= 80
 c147: x53 >= 30
 c148: x53 <= 60
 c149: x54 >= 50
 c150: x54 <= 100
 c151: - 1.20000004768372 x53 + x257  = 0
 c152: - 0.800000011920929 x54 + x258  = 0
 c153: x259 >= 0
 c154: x259 <= 1
 c155: x260 >= 0
 c156: x260 <= 1
 c157: - x251 + x259 - 0.00949999988079071 x261 + 0.0105263159215615 x262  = 0
 c158: x261 >= 0
 c159: x262 >= 0
 c160: 105.263159215615 x251 + x261 <= 105.263159215615
 c161: - 94.9999988079071 x251 + x262 <= 0
 c162: - x252 + x260 - 0.0189999997615814 x263 + 0.0210526318431231 x264  = 0
 c163: x263 >= 0
 c164: x264 >= 0
 c165: 52.6315796078077 x252 + x263 <= 52.6315796078077
 c166: - 47.4999994039536 x252 + x264 <= 0
 c167: x46 + x47 + x48 - x49 + x53 + x54 - x261 + x262  = 190
 c168: x50 - x51 + x52 + x257 + x258 - x263 + x264  = 135
 c169: x55 >= 0
 c170: x55 <= 100
 c171: x56 >= 0
 c172: x56 <= 80
 c173: x61 >= 0
 c174: x61 <= 80
 c175: x62 >= 30
 c176: x62 <= 60
 c177: x63 >= 50
 c178: x63 <= 100
 c179: - 1.20000004768372 x62 + x265  = 0
 c180: - 0.800000011920929 x63 + x266  = 0
 c181: x267 >= 0
 c182: x267 <= 1
 c183: x268 >= 0
 c184: x268 <= 1
 c185: - x259 + x267 - 0.00949999988079071 x269 + 0.0105263159215615 x270  = 0
 c186: x269 >= 0
 c187: x270 >= 0
 c188: 105.263159215615 x259 + x269 <= 105.263159215615
 c189: - 94.9999988079071 x259 + x270 <= 0
 c190: - x260 + x268 - 0.0189999997615814 x271 + 0.0210526318431231 x272  = 0
 c191: x271 >= 0
 c192: x272 >= 0
 c193: 52.6315796078077 x260 + x271 <= 52.6315796078077
 c194: - 47.4999994039536 x260 + x272 <= 0
 c195: x55 + x56 + x57 - x58 + x62 + x63 - x269 + x270  = 270
 c196: x59 - x60 + x61 + x265 + x266 - x271 + x272  = 150
 c197: x64 >= 0
 c198: x64 <= 100
 c199: x65 >= 0
 c200: x65 <= 80
 c201: x70 >= 0
 c202: x70 <= 80
 c203: x71 >= 30
 c204: x71 <= 60
 c205: x72 >= 50
 c206: x72 <= 100
 c207: - 1.20000004768372 x71 + x273  = 0
 c208: - 0.800000011920929 x72 + x274  = 0
 c209: x275 >= 0
 c210: x275 <= 1
 c211: x276 >= 0
 c212: x276 <= 1
 c213: - x267 + x275 - 0.00949999988079071 x277 + 0.0105263159215615 x278  = 0
 c214: x277 >= 0
 c215: x278 >= 0
 c216: 105.263159215615 x267 + x277 <= 105.263159215615
 c217: - 94.9999988079071 x267 + x278 <= 0
 c218: - x268 + x276 - 0.0189999997615814 x279 + 0.0210526318431231 x280  = 0
 c219: x279 >= 0
 c220: x280 >= 0
 c221: 52.6315796078077 x268 + x279 <= 52.6315796078077
 c222: - 47.4999994039536 x268 + x280 <= 0
 c223: x64 + x65 + x66 - x67 + x71 + x72 - x277 + x278  = 254
 c224: x68 - x69 + x70 + x273 + x274 - x279 + x280  = 160
 c225: x73 >= 0
 c226: x73 <= 100
 c227: x74 >= 0
 c228: x74 <= 80
 c229: x79 >= 0
 c230: x79 <= 80
 c231: x80 >= 30
 c232: x80 <= 60
 c233: x81 >= 50
 c234: x81 <= 100
 c235: - 1.20000004768372 x80 + x281  = 0
 c236: - 0.800000011920929 x81 + x282  = 0
 c237: x283 >= 0
 c238: x283 <= 1
 c239: x284 >= 0
 c240: x284 <= 1
 c241: - x275 + x283 - 0.00949999988079071 x285 + 0.0105263159215615 x286  = 0
 c242: x285 >= 0
 c243: x286 >= 0
 c244: 105.263159215615 x275 + x285 <= 105.263159215615
 c245: - 94.9999988079071 x275 + x286 <= 0
 c246: - x276 + x284 - 0.0189999997615814 x287 + 0.0210526318431231 x288  = 0
 c247: x287 >= 0
 c248: x288 >= 0
 c249: 52.6315796078077 x276 + x287 <= 52.6315796078077
 c250: - 47.4999994039536 x276 + x288 <= 0
 c251: x73 + x74 + x75 - x76 + x80 + x81 - x285 + x286  = 258
 c252: x77 - x78 + x79 + x281 + x282 - x287 + x288  = 175
 c253: x82 >= 0
 c254: x82 <= 100
 c255: x83 >= 0
 c256: x83 <= 80
 c257: x88 >= 0
 c258: x88 <= 80
 c259: x89 >= 30
 c260: x89 <= 60
 c261: x90 >= 50
 c262: x90 <= 100
 c263: - 1.20000004768372 x89 + x289  = 0
 c264: - 0.800000011920929 x90 + x290  = 0
 c265: x291 >= 0
 c266: x291 <= 1
 c267: x292 >= 0
 c268: x292 <= 1
 c269: - x283 + x291 - 0.00949999988079071 x293 + 0.0105263159215615 x294  = 0
 c270: x293 >= 0
 c271: x294 >= 0
 c272: 105.263159215615 x283 + x293 <= 105.263159215615
 c273: - 94.9999988079071 x283 + x294 <= 0
 c274: - x284 + x292 - 0.0189999997615814 x295 + 0.0210526318431231 x296  = 0
 c275: x295 >= 0
 c276: x296 >= 0
 c277: 52.6315796078077 x284 + x295 <= 52.6315796078077
 c278: - 47.4999994039536 x284 + x296 <= 0
 c279: x82 + x83 + x84 - x85 + x89 + x90 - x293 + x294  = 261
 c280: x86 - x87 + x88 + x289 + x290 - x295 + x296  = 190
 c281: x91 >= 0
 c282: x91 <= 100
 c283: x92 >= 0
 c284: x92 <= 80
 c285: x97 >= 0
 c286: x97 <= 80
 c287: x98 >= 30
 c288: x98 <= 60
 c289: x99 >= 50
 c290: x99 <= 100
 c291: - 1.20000004768372 x98 + x297  = 0
 c292: - 0.800000011920929 x99 + x298  = 0
 c293: x299 >= 0
 c294: x299 <= 1
 c295: x300 >= 0
 c296: x300 <= 1
 c297: - x291 + x299 - 0.00949999988079071 x301 + 0.0105263159215615 x302  = 0
 c298: x301 >= 0
 c299: x302 >= 0
 c300: 105.263159215615 x291 + x301 <= 105.263159215615
 c301: - 94.9999988079071 x291 + x302 <= 0
 c302: - x292 + x300 - 0.0189999997615814 x303 + 0.0210526318431231 x304  = 0
 c303: x303 >= 0
 c304: x304 >= 0
 c305: 52.6315796078077 x292 + x303 <= 52.6315796078077
 c306: - 47.4999994039536 x292 + x304 <= 0
 c307: x91 + x92 + x93 - x94 + x98 + x99 - x301 + x302  = 277
 c308: x95 - x96 + x97 + x297 + x298 - x303 + x304  = 195
 c309: x100 >= 0
 c310: x100 <= 100
 c311: x101 >= 0
 c312: x101 <= 80
 c313: x106 >= 0
 c314: x106 <= 80
 c315: x107 >= 30
 c316: x107 <= 60
 c317: x108 >= 50
 c318: x108 <= 100
 c319: - 1.20000004768372 x107 + x305  = 0
 c320: - 0.800000011920929 x108 + x306  = 0
 c321: x307 >= 0
 c322: x307 <= 1
 c323: x308 >= 0
 c324: x308 <= 1
 c325: - x299 + x307 - 0.00949999988079071 x309 + 0.0105263159215615 x310  = 0
 c326: x309 >= 0
 c327: x310 >= 0
 c328: 105.263159215615 x299 + x309 <= 105.263159215615
 c329: - 94.9999988079071 x299 + x310 <= 0
 c330: - x300 + x308 - 0.0189999997615814 x311 + 0.0210526318431231 x312  = 0
 c331: x311 >= 0
 c332: x312 >= 0
 c333: 52.6315796078077 x300 + x311 <= 52.6315796078077
 c334: - 47.4999994039536 x300 + x312 <= 0
 c335: x100 + x101 + x102 - x103 + x107 + x108 - x309 + x310  = 292
 c336: x104 - x105 + x106 + x305 + x306 - x311 + x312  = 200
 c337: x109 >= 0
 c338: x109 <= 100
 c339: x110 >= 0
 c340: x110 <= 80
 c341: x115 >= 0
 c342: x115 <= 80
 c343: x116 >= 30
 c344: x116 <= 60
 c345: x117 >= 50
 c346: x117 <= 100
 c347: - 1.20000004768372 x116 + x313  = 0
 c348: - 0.800000011920929 x117 + x314  = 0
 c349: x315 >= 0
 c350: x315 <= 1
 c351: x316 >= 0
 c352: x316 <= 1
 c353: - x307 + x315 - 0.00949999988079071 x317 + 0.0105263159215615 x318  = 0
 c354: x317 >= 0
 c355: x318 >= 0
 c356: 105.263159215615 x307 + x317 <= 105.263159215615
 c357: - 94.9999988079071 x307 + x318 <= 0
 c358: - x308 + x316 - 0.0189999997615814 x319 + 0.0210526318431231 x320  = 0
 c359: x319 >= 0
 c360: x320 >= 0
 c361: 52.6315796078077 x308 + x319 <= 52.6315796078077
 c362: - 47.4999994039536 x308 + x320 <= 0
 c363: x109 + x110 + x111 - x112 + x116 + x117 - x317 + x318  = 247
 c364: x113 - x114 + x115 + x313 + x314 - x319 + x320  = 195
 c365: x118 >= 0
 c366: x118 <= 100
 c367: x119 >= 0
 c368: x119 <= 80
 c369: x124 >= 0
 c370: x124 <= 80
 c371: x125 >= 30
 c372: x125 <= 60
 c373: x126 >= 50
 c374: x126 <= 100
 c375: - 1.20000004768372 x125 + x321  = 0
 c376: - 0.800000011920929 x126 + x322  = 0
 c377: x323 >= 0
 c378: x323 <= 1
 c379: x324 >= 0
 c380: x324 <= 1
 c381: - x315 + x323 - 0.00949999988079071 x325 + 0.0105263159215615 x326  = 0
 c382: x325 >= 0
 c383: x326 >= 0
 c384: 105.263159215615 x315 + x325 <= 105.263159215615
 c385: - 94.9999988079071 x315 + x326 <= 0
 c386: - x316 + x324 - 0.0189999997615814 x327 + 0.0210526318431231 x328  = 0
 c387: x327 >= 0
 c388: x328 >= 0
 c389: 52.6315796078077 x316 + x327 <= 52.6315796078077
 c390: - 47.4999994039536 x316 + x328 <= 0
 c391: x118 + x119 + x120 - x121 + x125 + x126 - x325 + x326  = 225
 c392: x122 - x123 + x124 + x321 + x322 - x327 + x328  = 195
 c393: x127 >= 0
 c394: x127 <= 100
 c395: x128 >= 0
 c396: x128 <= 80
 c397: x133 >= 0
 c398: x133 <= 80
 c399: x134 >= 30
 c400: x134 <= 60
 c401: x135 >= 50
 c402: x135 <= 100
 c403: - 1.20000004768372 x134 + x329  = 0
 c404: - 0.800000011920929 x135 + x330  = 0
 c405: x331 >= 0
 c406: x331 <= 1
 c407: x332 >= 0
 c408: x332 <= 1
 c409: - x323 + x331 - 0.00949999988079071 x333 + 0.0105263159215615 x334  = 0
 c410: x333 >= 0
 c411: x334 >= 0
 c412: 105.263159215615 x323 + x333 <= 105.263159215615
 c413: - 94.9999988079071 x323 + x334 <= 0
 c414: - x324 + x332 - 0.0189999997615814 x335 + 0.0210526318431231 x336  = 0
 c415: x335 >= 0
 c416: x336 >= 0
 c417: 52.6315796078077 x324 + x335 <= 52.6315796078077
 c418: - 47.4999994039536 x324 + x336 <= 0
 c419: x127 + x128 + x129 - x130 + x134 + x135 - x333 + x334  = 216
 c420: x131 - x132 + x133 + x329 + x330 - x335 + x336  = 180
 c421: x136 >= 0
 c422: x136 <= 100
 c423: x137 >= 0
 c424: x137 <= 80
 c425: x142 >= 0
 c426: x142 <= 80
 c427: x143 >= 30
 c428: x143 <= 60
 c429: x144 >= 50
 c430: x144 <= 100
 c431: - 1.20000004768372 x143 + x337  = 0
 c432: - 0.800000011920929 x144 + x338  = 0
 c433: x339 >= 0
 c434: x339 <= 1
 c435: x340 >= 0
 c436: x340 <= 1
 c437: - x331 + x339 - 0.00949999988079071 x341 + 0.0105263159215615 x342  = 0
 c438: x341 >= 0
 c439: x342 >= 0
 c440: 105.263159215615 x331 + x341 <= 105.263159215615
 c441: - 94.9999988079071 x331 + x342 <= 0
 c442: - x332 + x340 - 0.0189999997615814 x343 + 0.0210526318431231 x344  = 0
 c443: x343 >= 0
 c444: x344 >= 0
 c445: 52.6315796078077 x332 + x343 <= 52.6315796078077
 c446: - 47.4999994039536 x332 + x344 <= 0
 c447: x136 + x137 + x138 - x139 + x143 + x144 - x341 + x342  = 169
 c448: x140 - x141 + x142 + x337 + x338 - x343 + x344  = 170
 c449: x145 >= 0
 c450: x145 <= 100
 c451: x146 >= 0
 c452: x146 <= 80
 c453: x151 >= 0
 c454: x151 <= 80
 c455: x152 >= 30
 c456: x152 <= 60
 c457: x153 >= 50
 c458: x153 <= 100
 c459: - 1.20000004768372 x152 + x345  = 0
 c460: - 0.800000011920929 x153 + x346  = 0
 c461: x347 >= 0
 c462: x347 <= 1
 c463: x348 >= 0
 c464: x348 <= 1
 c465: - x339 + x347 - 0.00949999988079071 x349 + 0.0105263159215615 x350  = 0
 c466: x349 >= 0
 c467: x350 >= 0
 c468: 105.263159215615 x339 + x349 <= 105.263159215615
 c469: - 94.9999988079071 x339 + x350 <= 0
 c470: - x340 + x348 - 0.0189999997615814 x351 + 0.0210526318431231 x352  = 0
 c471: x351 >= 0
 c472: x352 >= 0
 c473: 52.6315796078077 x340 + x351 <= 52.6315796078077
 c474: - 47.4999994039536 x340 + x352 <= 0
 c475: x145 + x146 + x147 - x148 + x152 + x153 - x349 + x350  = 152
 c476: x149 - x150 + x151 + x345 + x346 - x351 + x352  = 185
 c477: x154 >= 0
 c478: x154 <= 100
 c479: x155 >= 0
 c480: x155 <= 80
 c481: x160 >= 0
 c482: x160 <= 80
 c483: x161 >= 30
 c484: x161 <= 60
 c485: x162 >= 50
 c486: x162 <= 100
 c487: - 1.20000004768372 x161 + x353  = 0
 c488: - 0.800000011920929 x162 + x354  = 0
 c489: x355 >= 0
 c490: x355 <= 1
 c491: x356 >= 0
 c492: x356 <= 1
 c493: - x347 + x355 - 0.00949999988079071 x357 + 0.0105263159215615 x358  = 0
 c494: x357 >= 0
 c495: x358 >= 0
 c496: 105.263159215615 x347 + x357 <= 105.263159215615
 c497: - 94.9999988079071 x347 + x358 <= 0
 c498: - x348 + x356 - 0.0189999997615814 x359 + 0.0210526318431231 x360  = 0
 c499: x359 >= 0
 c500: x360 >= 0
 c501: 52.6315796078077 x348 + x359 <= 52.6315796078077
 c502: - 47.4999994039536 x348 + x360 <= 0
 c503: x154 + x155 + x156 - x157 + x161 + x162 - x357 + x358  = 180
 c504: x158 - x159 + x160 + x353 + x354 - x359 + x360  = 190
 c505: x163 >= 0
 c506: x163 <= 100
 c507: x164 >= 0
 c508: x164 <= 80
 c509: x169 >= 0
 c510: x169 <= 80
 c511: x170 >= 30
 c512: x170 <= 60
 c513: x171 >= 50
 c514: x171 <= 100
 c515: - 1.20000004768372 x170 + x361  = 0
 c516: - 0.800000011920929 x171 + x362  = 0
 c517: x363 >= 0
 c518: x363 <= 1
 c519: x364 >= 0
 c520: x364 <= 1
 c521: - x355 + x363 - 0.00949999988079071 x365 + 0.0105263159215615 x366  = 0
 c522: x365 >= 0
 c523: x366 >= 0
 c524: 105.263159215615 x355 + x365 <= 105.263159215615
 c525: - 94.9999988079071 x355 + x366 <= 0
 c526: - x356 + x364 - 0.0189999997615814 x367 + 0.0210526318431231 x368  = 0
 c527: x367 >= 0
 c528: x368 >= 0
 c529: 52.6315796078077 x356 + x367 <= 52.6315796078077
 c530: - 47.4999994039536 x356 + x368 <= 0
 c531: x163 + x164 + x165 - x166 + x170 + x171 - x365 + x366  = 240
 c532: x167 - x168 + x169 + x361 + x362 - x367 + x368  = 195
 c533: x172 >= 0
 c534: x172 <= 100
 c535: x173 >= 0
 c536: x173 <= 80
 c537: x178 >= 0
 c538: x178 <= 80
 c539: x179 >= 30
 c540: x179 <= 60
 c541: x180 >= 50
 c542: x180 <= 100
 c543: - 1.20000004768372 x179 + x369  = 0
 c544: - 0.800000011920929 x180 + x370  = 0
 c545: x371 >= 0
 c546: x371 <= 1
 c547: x372 >= 0
 c548: x372 <= 1
 c549: - x363 + x371 - 0.00949999988079071 x373 + 0.0105263159215615 x374  = 0
 c550: x373 >= 0
 c551: x374 >= 0
 c552: 105.263159215615 x363 + x373 <= 105.263159215615
 c553: - 94.9999988079071 x363 + x374 <= 0
 c554: - x364 + x372 - 0.0189999997615814 x375 + 0.0210526318431231 x376  = 0
 c555: x375 >= 0
 c556: x376 >= 0
 c557: 52.6315796078077 x364 + x375 <= 52.6315796078077
 c558: - 47.4999994039536 x364 + x376 <= 0
 c559: x172 + x173 + x174 - x175 + x179 + x180 - x373 + x374  = 280
 c560: x176 - x177 + x178 + x369 + x370 - x375 + x376  = 200
 c561: x181 >= 0
 c562: x181 <= 100
 c563: x182 >= 0
 c564: x182 <= 80
 c565: x187 >= 0
 c566: x187 <= 80
 c567: x188 >= 30
 c568: x188 <= 60
 c569: x189 >= 50
 c570: x189 <= 100
 c571: - 1.20000004768372 x188 + x377  = 0
 c572: - 0.800000011920929 x189 + x378  = 0
 c573: x379 >= 0
 c574: x379 <= 1
 c575: x380 >= 0
 c576: x380 <= 1
 c577: - x371 + x379 - 0.00949999988079071 x381 + 0.0105263159215615 x382  = 0
 c578: x381 >= 0
 c579: x382 >= 0
 c580: 105.263159215615 x371 + x381 <= 105.263159215615
 c581: - 94.9999988079071 x371 + x382 <= 0
 c582: - x372 + x380 - 0.0189999997615814 x383 + 0.0210526318431231 x384  = 0
 c583: x383 >= 0
 c584: x384 >= 0
 c585: 52.6315796078077 x372 + x383 <= 52.6315796078077
 c586: - 47.4999994039536 x372 + x384 <= 0
 c587: x181 + x182 + x183 - x184 + x188 + x189 - x381 + x382  = 325
 c588: x185 - x186 + x187 + x377 + x378 - x383 + x384  = 195
 c589: x190 >= 0
 c590: x190 <= 100
 c591: x191 >= 0
 c592: x191 <= 80
 c593: x196 >= 0
 c594: x196 <= 80
 c595: x197 >= 30
 c596: x197 <= 60
 c597: x198 >= 50
 c598: x198 <= 100
 c599: - 1.20000004768372 x197 + x385  = 0
 c600: - 0.800000011920929 x198 + x386  = 0
 c601: x387 >= 0
 c602: x387 <= 1
 c603: x388 >= 0
 c604: x388 <= 1
 c605: - x379 + x387 - 0.00949999988079071 x389 + 0.0105263159215615 x390  = 0
 c606: x389 >= 0
 c607: x390 >= 0
 c608: 105.263159215615 x379 + x389 <= 105.263159215615
 c609: - 94.9999988079071 x379 + x390 <= 0
 c610: - x380 + x388 - 0.0189999997615814 x391 + 0.0210526318431231 x392  = 0
 c611: x391 >= 0
 c612: x392 >= 0
 c613: 52.6315796078077 x380 + x391 <= 52.6315796078077
 c614: - 47.4999994039536 x380 + x392 <= 0
 c615: x190 + x191 + x192 - x193 + x197 + x198 - x389 + x390  = 350
 c616: x194 - x195 + x196 + x385 + x386 - x391 + x392  = 190
 c617: x199 >= 0
 c618: x199 <= 100
 c619: x200 >= 0
 c620: x200 <= 80
 c621: x205 >= 0
 c622: x205 <= 80
 c623: x206 >= 30
 c624: x206 <= 60
 c625: x207 >= 50
 c626: x207 <= 100
 c627: - 1.20000004768372 x206 + x393  = 0
 c628: - 0.800000011920929 x207 + x394  = 0
 c629: x395 >= 0
 c630: x395 <= 1
 c631: x396 >= 0
 c632: x396 <= 1
 c633: - x387 + x395 - 0.00949999988079071 x397 + 0.0105263159215615 x398  = 0
 c634: x397 >= 0
 c635: x398 >= 0
 c636: 105.263159215615 x387 + x397 <= 105.263159215615
 c637: - 94.9999988079071 x387 + x398 <= 0
 c638: - x388 + x396 - 0.0189999997615814 x399 + 0.0210526318431231 x400  = 0
 c639: x399 >= 0
 c640: x400 >= 0
 c641: 52.6315796078077 x388 + x399 <= 52.6315796078077
 c642: - 47.4999994039536 x388 + x400 <= 0
 c643: x199 + x200 + x201 - x202 + x206 + x207 - x397 + x398  = 300
 c644: x203 - x204 + x205 + x393 + x394 - x399 + x400  = 180
 c645: x208 >= 0
 c646: x208 <= 100
 c647: x209 >= 0
 c648: x209 <= 80
 c649: x214 >= 0
 c650: x214 <= 80
 c651: x215 >= 30
 c652: x215 <= 60
 c653: x216 >= 50
 c654: x216 <= 100
 c655: - 1.20000004768372 x215 + x401  = 0
 c656: - 0.800000011920929 x216 + x402  = 0
 c657: x403 >= 0
 c658: x403 <= 1
 c659: x404 >= 0
 c660: x404 <= 1
 c661: - x395 + x403 - 0.00949999988079071 x405 + 0.0105263159215615 x406  = 0
 c662: x405 >= 0
 c663: x406 >= 0
 c664: 105.263159215615 x395 + x405 <= 105.263159215615
 c665: - 94.9999988079071 x395 + x406 <= 0
 c666: - x396 + x404 - 0.0189999997615814 x407 + 0.0210526318431231 x408  = 0
 c667: x407 >= 0
 c668: x408 >= 0
 c669: 52.6315796078077 x396 + x407 <= 52.6315796078077
 c670: - 47.4999994039536 x396 + x408 <= 0
 c671: x208 + x209 + x210 - x211 + x215 + x216 - x405 + x406  = 250
 c672: x212 - x213 + x214 + x401 + x402 - x407 + x408  = 175
Bounds
 0 <= x1 <= 100
 0 <= x2 <= 80
      x5 >= 0
      x6 >= 0
 0 <= x7 <= 80
 30 <= x8 <= 60
 50 <= x9 <= 100
 0 <= x10 <= 100
 0 <= x11 <= 80
      x14 >= 0
      x15 >= 0
 0 <= x16 <= 80
 30 <= x17 <= 60
 50 <= x18 <= 100
 0 <= x19 <= 100
 0 <= x20 <= 80
      x23 >= 0
      x24 >= 0
 0 <= x25 <= 80
 30 <= x26 <= 60
 50 <= x27 <= 100
 0 <= x28 <= 100
 0 <= x29 <= 80
      x32 >= 0
      x33 >= 0
 0 <= x34 <= 80
 30 <= x35 <= 60
 50 <= x36 <= 100
 0 <= x37 <= 100
 0 <= x38 <= 80
      x41 >= 0
      x42 >= 0
 0 <= x43 <= 80
 30 <= x44 <= 60
 50 <= x45 <= 100
 0 <= x46 <= 100
 0 <= x47 <= 80
      x50 >= 0
      x51 >= 0
 0 <= x52 <= 80
 30 <= x53 <= 60
 50 <= x54 <= 100
 0 <= x55 <= 100
 0 <= x56 <= 80
      x59 >= 0
      x60 >= 0
 0 <= x61 <= 80
 30 <= x62 <= 60
 50 <= x63 <= 100
 0 <= x64 <= 100
 0 <= x65 <= 80
      x68 >= 0
      x69 >= 0
 0 <= x70 <= 80
 30 <= x71 <= 60
 50 <= x72 <= 100
 0 <= x73 <= 100
 0 <= x74 <= 80
      x77 >= 0
      x78 >= 0
 0 <= x79 <= 80
 30 <= x80 <= 60
 50 <= x81 <= 100
 0 <= x82 <= 100
 0 <= x83 <= 80
      x86 >= 0
      x87 >= 0
 0 <= x88 <= 80
 30 <= x89 <= 60
 50 <= x90 <= 100
 0 <= x91 <= 100
 0 <= x92 <= 80
      x95 >= 0
      x96 >= 0
 0 <= x97 <= 80
 30 <= x98 <= 60
 50 <= x99 <= 100
 0 <= x100 <= 100
 0 <= x101 <= 80
      x104 >= 0
      x105 >= 0
 0 <= x106 <= 80
 30 <= x107 <= 60
 50 <= x108 <= 100
 0 <= x109 <= 100
 0 <= x110 <= 80
      x113 >= 0
      x114 >= 0
 0 <= x115 <= 80
 30 <= x116 <= 60
 50 <= x117 <= 100
 0 <= x118 <= 100
 0 <= x119 <= 80
      x122 >= 0
      x123 >= 0
 0 <= x124 <= 80
 30 <= x125 <= 60
 50 <= x126 <= 100
 0 <= x127 <= 100
 0 <= x128 <= 80
      x131 >= 0
      x132 >= 0
 0 <= x133 <= 80
 30 <= x134 <= 60
 50 <= x135 <= 100
 0 <= x136 <= 100
 0 <= x137 <= 80
      x140 >= 0
      x141 >= 0
 0 <= x142 <= 80
 30 <= x143 <= 60
 50 <= x144 <= 100
 0 <= x145 <= 100
 0 <= x146 <= 80
      x149 >= 0
      x150 >= 0
 0 <= x151 <= 80
 30 <= x152 <= 60
 50 <= x153 <= 100
 0 <= x154 <= 100
 0 <= x155 <= 80
      x158 >= 0
      x159 >= 0
 0 <= x160 <= 80
 30 <= x161 <= 60
 50 <= x162 <= 100
 0 <= x163 <= 100
 0 <= x164 <= 80
      x167 >= 0
      x168 >= 0
 0 <= x169 <= 80
 30 <= x170 <= 60
 50 <= x171 <= 100
 0 <= x172 <= 100
 0 <= x173 <= 80
      x176 >= 0
      x177 >= 0
 0 <= x178 <= 80
 30 <= x179 <= 60
 50 <= x180 <= 100
 0 <= x181 <= 100
 0 <= x182 <= 80
      x185 >= 0
      x186 >= 0
 0 <= x187 <= 80
 30 <= x188 <= 60
 50 <= x189 <= 100
 0 <= x190 <= 100
 0 <= x191 <= 80
      x194 >= 0
      x195 >= 0
 0 <= x196 <= 80
 30 <= x197 <= 60
 50 <= x198 <= 100
 0 <= x199 <= 100
 0 <= x200 <= 80
      x203 >= 0
      x204 >= 0
 0 <= x205 <= 80
 30 <= x206 <= 60
 50 <= x207 <= 100
 0 <= x208 <= 100
 0 <= x209 <= 80
      x212 >= 0
      x213 >= 0
 0 <= x214 <= 80
 30 <= x215 <= 60
 50 <= x216 <= 100
 0 <= x219 <= 1
 0 <= x220 <= 1
 0 <= x221 <= 50
 0 <= x222 <= 50
 0 <= x223 <= 50
 0 <= x224 <= 50
 0 <= x227 <= 1
 0 <= x228 <= 1
 0 <= x229 <= 50
 0 <= x230 <= 50
 0 <= x231 <= 50
 0 <= x232 <= 50
 0 <= x235 <= 1
 0 <= x236 <= 1
 0 <= x237 <= 50
 0 <= x238 <= 50
 0 <= x239 <= 50
 0 <= x240 <= 50
 0 <= x243 <= 1
 0 <= x244 <= 1
 0 <= x245 <= 50
 0 <= x246 <= 50
 0 <= x247 <= 50
 0 <= x248 <= 50
 0 <= x251 <= 1
 0 <= x252 <= 1
 0 <= x253 <= 50
 0 <= x254 <= 50
 0 <= x255 <= 50
 0 <= x256 <= 50
 0 <= x259 <= 1
 0 <= x260 <= 1
 0 <= x261 <= 50
 0 <= x262 <= 50
 0 <= x263 <= 50
 0 <= x264 <= 50
 0 <= x267 <= 1
 0 <= x268 <= 1
 0 <= x269 <= 50
 0 <= x270 <= 50
 0 <= x271 <= 50
 0 <= x272 <= 50
 0 <= x275 <= 1
 0 <= x276 <= 1
 0 <= x277 <= 50
 0 <= x278 <= 50
 0 <= x279 <= 50
 0 <= x280 <= 50
 0 <= x283 <= 1
 0 <= x284 <= 1
 0 <= x285 <= 50
 0 <= x286 <= 50
 0 <= x287 <= 50
 0 <= x288 <= 50
 0 <= x291 <= 1
 0 <= x292 <= 1
 0 <= x293 <= 50
 0 <= x294 <= 50
 0 <= x295 <= 50
 0 <= x296 <= 50
 0 <= x299 <= 1
 0 <= x300 <= 1
 0 <= x301 <= 50
 0 <= x302 <= 50
 0 <= x303 <= 50
 0 <= x304 <= 50
 0 <= x307 <= 1
 0 <= x308 <= 1
 0 <= x309 <= 50
 0 <= x310 <= 50
 0 <= x311 <= 50
 0 <= x312 <= 50
 0 <= x315 <= 1
 0 <= x316 <= 1
 0 <= x317 <= 50
 0 <= x318 <= 50
 0 <= x319 <= 50
 0 <= x320 <= 50
 0 <= x323 <= 1
 0 <= x324 <= 1
 0 <= x325 <= 50
 0 <= x326 <= 50
 0 <= x327 <= 50
 0 <= x328 <= 50
 0 <= x331 <= 1
 0 <= x332 <= 1
 0 <= x333 <= 50
 0 <= x334 <= 50
 0 <= x335 <= 50
 0 <= x336 <= 50
 0 <= x339 <= 1
 0 <= x340 <= 1
 0 <= x341 <= 50
 0 <= x342 <= 50
 0 <= x343 <= 50
 0 <= x344 <= 50
 0 <= x347 <= 1
 0 <= x348 <= 1
 0 <= x349 <= 50
 0 <= x350 <= 50
 0 <= x351 <= 50
 0 <= x352 <= 50
 0 <= x355 <= 1
 0 <= x356 <= 1
 0 <= x357 <= 50
 0 <= x358 <= 50
 0 <= x359 <= 50
 0 <= x360 <= 50
 0 <= x363 <= 1
 0 <= x364 <= 1
 0 <= x365 <= 50
 0 <= x366 <= 50
 0 <= x367 <= 50
 0 <= x368 <= 50
 0 <= x371 <= 1
 0 <= x372 <= 1
 0 <= x373 <= 50
 0 <= x374 <= 50
 0 <= x375 <= 50
 0 <= x376 <= 50
 0 <= x379 <= 1
 0 <= x380 <= 1
 0 <= x381 <= 50
 0 <= x382 <= 50
 0 <= x383 <= 50
 0 <= x384 <= 50
 0 <= x387 <= 1
 0 <= x388 <= 1
 0 <= x389 <= 50
 0 <= x390 <= 50
 0 <= x391 <= 50
 0 <= x392 <= 50
 0 <= x395 <= 1
 0 <= x396 <= 1
 0 <= x397 <= 50
 0 <= x398 <= 50
 0 <= x399 <= 50
 0 <= x400 <= 50
 0 <= x403 <= 1
 0 <= x404 <= 1
 0 <= x405 <= 50
 0 <= x406 <= 50
 0 <= x407 <= 50
 0 <= x408 <= 50
Generals
 x1  x2  x5  x6  x7  x8  x9  x10  x11  x14  x15  x16  x17  x18  x19  x20  x23 
 x24  x25  x26  x27  x28  x29  x32  x33  x34  x35  x36  x37  x38  x41  x42 
 x43  x44  x45  x46  x47  x50  x51  x52  x53  x54  x55  x56  x59  x60  x61 
 x62  x63  x64  x65  x68  x69  x70  x71  x72  x73  x74  x77  x78  x79  x80 
 x81  x82  x83  x86  x87  x88  x89  x90  x91  x92  x95  x96  x97  x98  x99 
 x100  x101  x104  x105  x106  x107  x108  x109  x110  x113  x114  x115  x116 
 x117  x118  x119  x122  x123  x124  x125  x126  x127  x128  x131  x132  x133 
 x134  x135  x136  x137  x140  x141  x142  x143  x144  x145  x146  x149  x150 
 x151  x152  x153  x154  x155  x158  x159  x160  x161  x162  x163  x164  x167 
 x168  x169  x170  x171  x172  x173  x176  x177  x178  x179  x180  x181  x182 
 x185  x186  x187  x188  x189  x190  x191  x194  x195  x196  x197  x198  x199 
 x200  x203  x204  x205  x206  x207  x208  x209  x212  x213  x214  x215  x216 
 x223  x224  x231  x232  x239  x240  x247  x248  x255  x256  x263  x264  x271 
 x272  x279  x280  x287  x288  x295  x296  x303  x304  x311  x312  x319  x320 
 x327  x328  x335  x336  x343  x344  x351  x352  x359  x360  x367  x368  x375 
 x376  x383  x384  x391  x392  x399  x400  x407  x408 
End
